5 5
0 82 4 55 2 67 1 9 3 6
1 1 2 42 0 93 4 55 3 49
4 99 0 99 2 30 1 35 3 63
1 22 2 43 0 28 3 18 4 32
3 69 2 54 4 34 0 31 1 97
-1
0 1 3 4 5
0 2 3 4 5
0 2 5
0 1 3 5
0 3 5
-2
118 300 235 301
53 180 275 380
285 380
34 128 147
191 372

419 6
0 11 7 23 17
5 15 3 13 24
6 21 2 12 16
20 4 14 18 9
10 1 22 8 19
